18508
0 0 1 0 0 1 1 0 0 0 0 1 0 0 0 0 0 1 0 0 1 0 0 0 0 0 0 0 0 0 
6 5 6 2 6 5 2 5 2 17 5 2 2 17 17 2 17 17 5 17 2 17 5 17 5 2 2 5 5 5 5 5 6 5 20 20 5 5 17 2 17 20 5 20 5 17 17 20 17 20 5 2 17 5 20 20 17 17 17 17 17 5 20 17 17 5 5 17 5 5 20 6 5 17 5 20 5 20 2 5 20 17 20 17 17 17 17 17 20 5 2 17 2 5 2 5 2 2 2 20 20 2 2 2 2 2 2 2 2 20 2 2 2 11 11 11 11 11 11 11 11 20 11 20 20 11 11 11 11 11 11 11 11 11 20 2 11 11 20 11 11 20 20 11 20 11 11 11 11 11 
